[[31, 25, 55, 18, 50, 24, 3, 44, 32, 40, 17, 51, 16, 33, 63, 49, 23, 56, 43, 41, 42, 64, 22, 73, 62, 28, 61, 21, 47, 69, 36, 71, 60, 70], [20, 37, 15, 57, 5, 29, 45, 48, 30, 74, 2, 6, 68, 75, 76, 4, 26, 67, 34, 46, 52, 27, 13, 54, 19, 8, 35, 7, 53, 14, 59, 11, 66, 65, 38, 10, 58, 72, 12, 9, 39]]